53
2 99 116 
2 117 26 
2 71 85 
2 92 78 
2 38 47 
2 103 107 
2 49 72 
2 74 27 
2 80 5 
2 59 115 
2 51 22 
3 104 90 18 
2 11 58 
2 112 88 
2 46 9 
2 63 43 
2 95 40 
2 34 68 
2 118 32 
2 61 106 
2 93 120 
2 114 6 
3 1 29 75 
2 108 91 
3 105 28 7 
2 16 10 
2 81 53 
2 54 77 
2 45 100 
2 73 60 
3 42 21 37 
2 12 33 
2 79 70 
2 15 94 
3 76 30 98 
2 25 55 
2 64 23 
2 31 82 
2 4 14 
3 101 97 110 
2 62 84 
2 65 111 
3 66 67 39 
2 89 36 
3 102 35 52 
3 8 13 41 
2 2 20 
3 50 3 109 
3 24 57 119 
2 86 113 
2 69 96 
3 56 87 19 
4 17 83 44 48 
